         512
  Built with Packmol                                             
  Li           5.133660        5.827768        5.909247
  Li           2.999057       11.654608        3.446769
  Li           1.892986       11.833717       14.763587
  Li           3.753785       12.011467       13.279955
  Li           5.668125       14.678923        3.609766
  Li           7.708267       13.726016        0.053514
  Li          11.989731        3.169488       10.861529
  Li          -0.002255       15.889192       13.284691
  Li          14.920875       13.678853       10.798372
  Li           3.817485       16.210751        5.686023
  Li          16.972399        7.131932        4.040015
  Li          15.672325       17.103433       12.285797
  Li           9.616748        7.311675        4.407623
  Li           8.084303       13.331639        3.093333
  Li           5.151172        7.337012        7.917133
  Li          12.793248        0.214733       12.970323
  Li           9.907805       17.083238       11.050550
  Li          11.304197       14.981863       -0.018193
  Li          13.912435       13.635104       16.418013
  Li          12.186535        0.931150        2.984677
  Li          11.621760        1.137902       16.805588
  Li           9.024870        1.027457        2.529968
  Li          17.113201        2.168237       15.795589
  Li          14.877731        9.322786        3.034190
  Li          15.810985        5.305871        4.148897
  Li          12.162018        4.917645       11.773135
  Li           6.329958       -0.016572        7.998484
  Li           2.139620        4.530377        0.969871
  Li           3.984741       15.971475        0.979395
  Li          16.659107       13.269734        7.289916
  Li           6.447396       10.013994       12.746062
  Li          10.269309       14.256329       15.010121
  Li          11.994346       16.001380        8.061113
  Li          10.683213        2.124018        7.560430
  Li           4.148338       10.314735        5.155886
  Li          16.220328       14.811728       13.335411
  Li           2.398421       17.040730       14.084676
  Li           1.782026       17.003445       11.733992
  Li           8.645159       14.643477       17.109504
  Li          11.153454        2.153478       -0.000653
  Li          11.465135        0.957370       14.326764
  Li           1.118692        1.903462        6.555913
  Li           6.028334        8.965285        0.205773
  Li           8.131019        3.702501       13.842434
  Li          11.684609       10.724428       16.571408
  Li          15.946019       16.799374        8.630220
  Li           5.249898        4.784317       11.430646
  Li           7.733340       14.806359       13.635460
  Li           5.594954        6.628921       10.092380
  Li          14.174489        7.668198       15.611121
  Li           6.010193       17.061237       16.851562
  Li           9.351078        1.648393       14.083937
  Li           5.957864        8.602232        9.479147
  Li           1.986916       10.820767       13.066051
  Li           3.064058       15.043938        4.008739
  Li          14.966619        7.849489        5.007229
  Li           5.522964       17.108739        1.488687
  Li           2.927507        1.575801       12.093025
  Li          16.134925        1.451521        5.492463
  Li           8.279834       11.302063        4.159440
  Li           6.172571        2.269622        4.799825
  Li           7.904471       12.078433        1.528079
  Li           3.871352       12.523477        1.331810
  Li           3.493325        1.420397       -0.000000
  Li           0.065820        5.785519       14.760818
  Li          10.375946        8.876216        9.501657
  Li          15.995871        3.906068       10.583228
  Li           7.363210        1.303270       14.694519
  Li           6.103238       17.106742        6.532552
  Li          13.938944        3.573236        3.460550
  Li          14.780126        4.424507        1.714256
  Li          10.133318        2.472293        5.522221
  Li          13.014355       13.666667        6.253450
  Li           0.839769        3.831441       14.351839
  Li           1.799856       16.237758        7.442312
  Li          11.768801        6.771677        0.233435
  Li           9.493152       12.998283        4.446093
  Li          12.252646       11.133196        9.457174
  Li           7.405093       10.287955        9.478382
  Li           1.726804        3.973020        9.800768
  Li           3.375428       -0.012042       13.509586
  Li          17.104380        5.081414        9.178111
  Li           5.768462       13.220592        1.535829
  Li          11.330792       10.239041        1.242561
  Li          15.046638       15.365292       -0.000076
  Li          15.648445        4.339695       13.638312
  Li          14.092102        9.029025        8.976568
  Li           9.326943       14.938435       -0.000994
  Li           3.688661        8.274838        6.448135
  Li          14.772493        0.136902       16.755005
  Li           8.126289        4.460342        3.918751
  Li          11.542571       12.729951       15.160890
  Li          15.725281        1.367444       14.633050
  Li          14.455036       15.222902       12.540187
  Li           6.257598       12.179674        4.708299
  Li          13.757944        4.799493       12.938246
  Li           4.303826       11.825054        7.576608
  Li           3.604905        4.358782       17.117066
  Li          12.522473       16.823588       16.716997
  Li           8.486024        5.785455        1.733662
  Li          17.103581        1.137524        7.862794
  Li           6.044777       14.901439       -0.002084
  Li          -0.000003       17.044871        9.679263
  Li          14.521694        0.812585        3.689836
  Li           8.691667        9.872057       14.377344
  Li           3.126668        5.296906        2.930072
  Li          11.208565       17.117385       12.543441
  Li           5.194555       -0.000510       11.411121
  Li          11.317328        8.766438       16.384147
  Li           6.376501        1.758025        0.231034
  Li          13.827707       10.674092        7.907514
  Li          13.031107        6.597714       13.342269
  Li           4.842980        9.960426        8.116783
  Li          13.428196        0.640539       10.986312
  Li           8.972796       -0.000185        9.297715
  Li           7.084834        2.887142       15.898983
  Li          14.955600        4.002907        8.405306
  Li           4.943364        2.801053       13.483705
  Li           0.639580       10.737722       15.831891
  Li           0.881185       15.718925        5.621258
  Li          13.370861        2.885459        9.023240
  Li           8.095142       16.890819       12.875289
  Li          16.427920        5.060060        6.911482
  Li          14.858686        7.616479       12.147602
  Li           0.965465       13.303774       15.742695
  Li          10.350726        3.291385        3.289483
  Li           8.386237       13.759752       15.358981
  Li          14.081859        3.820875       11.245788
  Li           2.351805       16.577091        9.608212
  Li          10.414288       14.912921       10.979891
  Li          -0.001209        4.626859        6.147378
  Li           1.598895        6.810315       15.558815
  Li          15.438261        6.573854        0.851949
  Li          16.754566        0.579141       12.066369
  Li          13.245319        9.215361       16.419857
  Li          13.851453       17.103139       15.254177
  Li          13.039620        2.467128        1.880063
  Li          12.034405        8.994583        8.380130
  Li           3.489067       15.335753       17.111513
  Li          10.406944        4.555557       10.906769
  Li          12.627870        0.904231        5.509347
  Li          13.235514       10.041301       12.584815
  Li           7.947509        2.522194       10.983550
  Li           6.176915        2.830291       11.822423
  Li           2.241548        4.137124       15.713942
  Li           5.138794        4.447673        9.435736
  Li           2.956483        2.515571       14.003017
  Li          15.112732       11.557326        3.326346
  Li           4.455294       10.606325       12.091335
  Li          17.102789        9.542379       11.802607
  Li           8.964805        3.504075        9.600049
  Li           3.390348        6.070381       15.991857
  Li           3.649617        2.105477        9.674450
  Li           7.675304        4.334996        8.349019
  Li           3.990556        4.401828        6.673226
  Li           4.455992        3.201842        0.607570
  Li           0.146985        3.641312        8.301382
  Li           8.625592       10.284345        0.541307
  Li          11.524751       -0.000532        8.871402
  Li           3.645024       13.544390        8.669020
  Li          14.011996        3.109412       -0.000500
  Li          16.841457       10.518167       14.171744
  Li          14.142850        6.371036       17.106311
  Li          16.740108        3.908715        0.845318
  Li           3.547388        7.336749        1.961329
  Li          17.104105       14.733531        3.361250
  Li          16.549115       15.783225       10.218194
  Li          14.587403        9.941081       11.141729
  Li          16.826750       14.157378       11.405013
  Li           2.579429       12.601727       17.100741
  Li           8.989241        9.998689        6.139021
  Li           0.435171        2.899095        4.356038
  Li           8.194407        8.501991        5.113838
  Li          10.652681       -0.000009        3.984859
  Li           9.955391       -0.004113       13.035246
  Li          14.227413       14.881520       14.476171
  Li          12.797482        4.004794       15.736632
  Li           7.342567       12.209959       14.688710
  Li           4.141985       15.883808        7.613599
  Li           7.722519        2.024767       12.886317
  Li           9.694253        0.388426        7.224056
  Li          12.580821        6.505388       15.778430
  Li           6.227362       -0.010735       15.634155
  Li          10.193226        2.950044       17.103643
  Li          10.312150        4.972730       -0.003254
  Li          10.038357        9.930130       11.794775
  Li           9.032466        3.020044       15.490699
  Li           3.822278       14.152509       12.518937
  Li           5.175448       13.361018        9.911039
  Li          13.377483        0.644885       15.006972
  Li           5.588606        2.588170        9.947335
  Li           6.779923        0.948957       10.701173
  P            0.504981        6.397451       11.209362
  O            0.002241        5.808713       12.540617
  O            2.044934        6.405971       11.200858
  O           -0.017189        7.838021       11.055423
  O           -0.010062        5.537098       10.040549
  P           11.946071       14.997627        2.146903
  O           12.783480       14.485038        3.333325
  O           11.089484       13.846420        1.587814
  O           12.884895       15.521306        1.044192
  O           11.026425       16.137745        2.622280
  P            2.664124        5.667086        8.046920
  O            3.499738        6.303360        6.920641
  O            1.268515        5.302586        7.507464
  O            2.520237        6.668628        9.207872
  O            3.368009        4.393767        8.551704
  P            0.878021       13.894964        7.788726
  O           -0.010746       15.030314        7.247733
  O            0.000538       12.856296        8.511769
  O            1.906794       14.474958        8.777075
  O            1.615500       13.218288        6.618326
  P            9.614517       11.986400       13.753689
  O            8.802112       11.075155       12.814950
  O            9.165632       13.447516       13.565964
  O           11.112690       11.862669       13.419367
  O            9.377636       11.560259       15.214473
  P            6.224606        4.623429       16.239339
  O            5.566086        5.950024       16.661354
  O            7.383296        4.297135       17.199843
  O            6.768509        4.753956       14.804511
  O            5.180532        3.492601       16.291648
  P            0.858769       13.653619       13.002683
  O            0.003298       14.129780       14.191397
  O            0.942716       14.773881       11.949323
  O            0.213601       12.404778       12.373594
  O            2.275460       13.306038       13.496417
  P            8.281038       15.958857        2.712432
  O            8.237996       14.838590        1.656615
  O            6.857087       16.494837        2.950526
  O            9.182773       17.102225        2.211250
  O            8.846297       15.399777        4.031338
  P            7.402702        6.076443        5.848606
  O            8.807025        5.591313        5.443479
  O            7.520786        7.405126        6.618188
  O            6.734253        5.020004        6.747891
  O            6.548745        6.289327        4.584867
  P            4.890253       11.853324       15.058529
  O            3.595016       12.612215       15.402111
  O            5.575736       12.526481       13.854963
  O            4.551425       10.393090       14.705666
  O            5.838833       11.881510       16.271378
  P           15.633704       14.366435        5.068456
  O           16.840274       15.239713        5.459830
  O           16.102928       13.226610        4.145294
  O           14.593314       15.229364        4.330525
  O           14.998299       13.770052        6.338176
  P           16.500614        9.992626        6.305906
  O           14.973139        9.912451        6.484772
  O           16.824973       10.599974        4.928401
  O           17.103188        8.578414        6.398149
  O           17.101156       10.879665        7.412302
  P            4.267386        1.254449       16.208574
  O            4.757433        0.074815       17.068758
  O            3.116082        0.784063       15.300368
  O            5.428031        1.772825       15.339212
  O            3.767997        2.386094       17.125956
  P           12.782798        5.730096        2.289540
  O           11.940880        7.019088        2.253858
  O           12.159098        4.737057        3.287774
  O           14.219271        6.067255        2.730526
  O           12.811944        5.096985        0.886001
  P           15.853041        7.413741        9.326290
  O           15.744876        8.775674       10.036950
  O           17.113348        7.395078        8.441487
  O           14.606767        7.191960        8.449241
  O           15.947171        6.292253       10.377481
  P            1.605096       12.065938       10.473194
  O            2.090295       10.740525       11.089200
  O            2.211748       12.231089        9.067385
  O            2.049781       13.239801       11.365326
  O            0.068560       12.052336       10.370864
  P           12.167432        8.636481        5.172798
  O           12.302107        9.467341        6.462424
  O           13.355167        8.939483        4.240557
  O           10.850904        9.001530        4.462100
  O           12.161551        7.137570        5.526113
  P            4.132697        8.122962       12.949668
  O            2.964820        9.099068       13.183935
  O            5.138664        8.752276       11.968039
  O            3.591912        6.808086       12.357847
  O            4.835391        7.832420       14.288849
  P           13.120575       15.992392       10.511793
  O           12.332829       17.105151        9.795676
  O           14.628130       16.295624       10.428547
  O           12.830694       14.640410        9.833771
  O           12.690649       15.928383       11.989178
  P            8.663707        9.131263        8.393350
  O            9.293398       10.427772        8.935711
  O            8.291332        8.210159        9.569999
  O            9.673877        8.413325        7.479172
  O            7.396223        9.473797        7.588519
  P            0.860550        9.904328        5.519330
  O            0.911715       11.250438        6.265635
  O            2.288056        9.480506        5.126647
  O            0.001829       10.053590        4.249716
  O            0.240598        8.832779        6.435323
  P            8.782990        7.044756       15.761100
  O            9.692144        7.600129       16.873125
  O            9.541915        7.061847       14.421197
  O            7.519788        7.918167       15.646753
  O            8.378111        5.598881       16.103325
  P            9.974905        6.202354        7.600914
  O           10.338333        6.960079        6.310421
  O            8.715612        6.829688        8.227200
  O           11.144969        6.295713        8.597826
  O            9.700705        4.723935        7.268209
  P            3.190534       12.981886        5.443319
  O            1.959507       13.430389        4.633989
  O            2.843958       11.712880        6.244012
  O            3.603723       14.104173        6.413549
  O            4.354950       12.680101        4.481726
  P           12.644735        6.749273       10.348801
  O           11.193700        6.355860       10.682454
  O           12.744768        8.280625       10.220139
  O           13.061371        6.094085        9.018859
  O           13.579101        6.266521       11.473750
  P           14.752404       11.367262       15.038110
  O           13.444601       11.397898       15.850706
  O           14.655199       10.282098       13.949730
  O           15.932041       11.049660       15.975758
  O           14.977774       12.739393       14.376244
  P            1.061404        8.732101       14.609436
  O            1.749634        7.643820       13.764697
  O            2.119217        9.483891       15.438559
  O            0.038093        8.076946       15.555590
  O            0.338673        9.723746       13.678899
  P            3.306442        4.482420       11.666718
  O            1.774003        4.348417       11.739341
  O            3.681853        5.492284       10.566336
  O            3.926635        3.111542       11.338613
  O            3.843277        4.977438       13.022581
  P            2.030943       15.190288        1.722471
  O            1.626809       14.946093        0.256645
  O            3.331842       14.425828        2.030471
  O            0.910110       14.692264        2.653764
  O            2.255009       16.696965        1.949004
  P            8.116253        5.241635       10.727444
  O            8.794825        4.776824       12.029401
  O            9.185404        5.458750        9.640533
  O            7.367535        6.563037       10.982236
  O            7.117248        4.167930       10.257608
  P           11.807510       11.992980        4.413769
  O           13.301129       11.826066        4.077852
  O           11.557311       13.415603        4.947758
  O           11.404417       10.963869        5.486172
  O           10.967182       11.766382        3.143296
  P           10.616317       11.689465        7.472449
  O            9.669433       12.133025        6.341846
  O           12.030823       12.234427        7.200809
  O           10.661235       10.151217        7.530556
  O           10.103777       12.239190        8.816586
  P            8.574104        8.228649       12.711509
  O            9.897635        8.690627       13.349036
  O            8.629510        6.710961       12.456260
  O            8.362437        8.966349       11.376370
  O            7.406832        8.546660       13.664371
  P           15.331518       16.588547        2.477170
  O           14.220894       17.102475        1.542294
  O           15.332097       15.048548        2.475504
  O           15.076432       17.100238        3.907102
  O           16.696647       17.102929        1.983781
  P           10.433929       16.539071        5.316123
  O           11.440588       17.106669        4.298247
  O            9.031908       17.103782        5.021101
  O           10.860686       16.942453        6.739766
  O           10.402534       15.003379        5.205375
  P           15.890270       15.828532       16.194803
  O           16.010158       14.595464       15.280051
  O           17.123671       15.908029       17.113498
  O           14.617477       15.708901       17.053456
  O           15.809775       17.101734       15.332204
  P            6.106298        2.026648        7.579587
  O            6.538095        1.134449        6.400973
  O            7.294681        2.219197        8.539937
  O            4.941991        1.355620        8.331724
  O            5.650425        3.397327        7.045715
  P            5.871591       10.230221        2.278441
  O            5.044411        8.980678        1.923453
  O            7.341562        9.827268        2.498472
  O            5.315142       10.865370        3.566288
  O            5.785249       11.247566        1.125552
  P           10.941334       12.251118       11.082910
  O            9.702772       11.474881       10.598121
  O           11.942036       11.272090       11.724548
  O           10.513271       13.302844       12.123215
  O           11.607258       12.954657        9.885755
  P            7.425705        9.745412       16.363532
  O            7.429781       11.097397       17.100905
  O            8.869271        9.223228       16.240891
  O            6.825172        9.929387       14.957434
  O            6.578596        8.731634       17.154899
  P            6.307832        5.982310       13.323321
  O            5.857020        6.924912       12.192008
  O            5.140385        5.761076       14.302976
  O            7.495504        6.612712       14.074072
  O            6.738418        4.630540       12.724228
  P            6.775931       15.200636        5.616395
  O            8.076700       15.803844        6.178302
  O            5.857685       14.785448        6.780888
  O            7.110879       13.964650        4.760972
  O            6.058458       16.248601        4.745418
  P            6.112614       15.633079       10.734398
  O            6.058982       17.105326       11.182964
  O            7.192016       14.889208       11.542573
  O            6.456480       15.565547        9.234800
  O            4.742977       14.972234       10.977257
  P           14.790430       12.424323        8.559676
  O           13.307505       12.838854        8.586102
  O           15.666186       13.624282        8.965568
  O           15.170801       11.968577        7.138685
  O           15.017228       11.265578        9.548348
  P            3.415042        3.310939        4.281404
  O            4.821249        3.375878        3.656930
  O            3.080654        4.664621        4.935108
  O            3.378386        2.202117        5.349473
  O            2.379882        3.001139        3.184104
  P           13.340636       12.548503        0.893891
  O           13.126640       13.822800        0.056053
  O           11.993659       12.088473        1.481792
  O           14.325667       12.846762        2.039472
  O           13.916576       11.435977       -0.001753
  P            9.587509       15.985291        8.157385
  O           10.403219       15.056286        7.239145
  O           10.509165       16.573614        9.241832
  O            8.456074       15.182255        8.825658
  O            8.981577       17.129009        7.322907
  P           11.622345       15.548178       14.327768
  O           10.202328       16.142721       14.368646
  O           12.030958       15.097201       15.742425
  O           12.611396       16.615467       13.823512
  O           11.644699       14.337324       13.376488
  P           12.496725        4.997391        5.494531
  O           12.867787        5.366899        6.942763
  O           12.531495        3.466564        5.330343
  O           13.506428        5.640629        4.525848
  O           11.081190        5.515473        5.179169
  P            7.114643       12.645540        7.408708
  O            6.854967       11.464846        6.454700
  O            8.068276       12.197764        8.531954
  O            5.781637       13.112188        8.022660
  O            7.753691       13.807363        6.625519
  P           10.405240        0.973958       11.131673
  O           11.560976       -0.004339       10.850939
  O            9.087923        0.187515       11.265027
  O           10.288509        1.977624        9.969508
  O           10.683553        1.735030       12.441219
  P           10.516305        4.955565       13.481089
  O            9.369576        5.108837       14.497515
  O           10.528655        6.169952       12.534140
  O           10.307742        3.668138       12.662168
  O           11.859248        4.875333       14.230535
  P            2.762563        9.091569        9.500169
  O            3.803827        9.634434       10.496495
  O            3.474243        8.263656        8.414042
  O            2.018386       10.268832        8.843013
  O            1.753795        8.199356       10.247124
  P           14.011248       16.444081        7.346032
  O           12.826765       16.964743        6.510861
  O           13.993828       17.111871        8.733604
  O           15.332111       16.782298        6.630119
  O           13.892289       14.917414        7.509546
  P           12.192052        8.660967       13.548195
  O           11.465961        7.464132       14.190049
  O           11.726381        9.965221       14.221748
  O           11.863832        8.714200       12.044520
  O           13.712035        8.500317       13.736462
  P           14.616568        0.888403        8.251455
  O           15.471223       -0.000491        7.328941
  O           15.539476        1.737676        9.145086
  O           13.721669       -0.000068        9.135409
  O           13.733904        1.816496        7.396382
  P            4.850384        8.094182        4.189888
  O            3.894379        9.131168        3.571571
  O            4.055299        6.837505        4.590139
  O            5.522373        8.695670        5.438184
  O            5.929485        7.712387        3.159658
  P            1.713137       10.705836        1.431518
  O            0.945155        9.373406        1.351314
  O            3.169413       10.434436        1.852474
  O            1.041328       11.623870        2.469539
  O            1.696652       11.391633        0.052747
  P           15.880381        4.574944       16.096795
  O           15.474559        3.475635       17.096008
  O           14.652326        4.993167       15.266992
  O           16.975300        4.036056       15.157459
  O           16.419339        5.794920       16.866719
  P            6.263465       12.023579       11.461327
  O            7.031678       12.865975       10.426041
  O            7.080596       11.940981       12.764045
  O            6.039835       10.605163       10.904832
  O            4.901750       12.682195       11.750390
  P           16.235659        6.538721       13.096633
  O           17.106376        7.488220       12.252889
  O           15.350045        7.364108       14.048485
  O           17.142987        5.605410       13.919608
  O           15.343230        5.697144       12.165549
  P            0.598923        6.388050        4.481185
  O            0.077094        4.966830        4.199358
  O            0.182694        7.324985        3.332052
  O            2.134864        6.358944        4.589058
  O            0.001038        6.901443        5.804273
  P            9.080339        8.180514        1.770879
  O            7.608568        7.899346        2.126458
  O            9.224112        8.307108        0.242840
  O            9.960631        7.021859        2.275065
  O            9.528044        9.493743        2.439152
  P            5.151907       14.744312       15.579004
  O            6.666637       14.777958       15.303214
  O            4.627680       16.183166       15.741746
  O            4.882889       13.950739       16.871085
  O            4.430421       14.065384       14.399973
