         100
  Built with Packmol                                             
  Fe           5.377322       -0.005804        9.508434
  Fe          -0.000636        0.688558        0.494827
  Fe           5.187530        5.734990        2.355798
  Fe           5.504857        6.172681       10.484220
  Fe           1.998639       -0.012694        2.612924
  Fe           8.580654        2.169884        1.833793
  Fe           2.916868        0.070705       10.422911
  Fe           6.216375        2.993292        0.481190
  Fe           6.727046        3.964612        3.542706
  Fe           2.234098        2.185479        3.838237
  Fe           2.912955        8.082809       -0.061413
  Fe           4.603441        2.998157        6.717971
  Fe           9.081337        2.978486        8.002749
  Fe           7.451453        7.027440        0.012875
  Fe          10.479227        4.227264        9.701984
  Fe           0.180847       10.487985        8.084658
  Fe           3.544878        5.402091        4.635314
  Fe           5.212356        4.806782        8.375338
  Fe           4.396341        9.080258        6.086156
  Fe           6.043206        2.434883        8.736144
  Fe           1.070857        5.911825        4.717991
  Fe           5.723146       10.475812        7.724360
  Fe           7.915903        5.065185        7.140309
  Fe           0.146974        6.231257        2.386741
  Fe           5.706161        5.129481        5.916296
  Fe           2.144462        0.845398        5.976698
  Fe           4.468767       -0.001516        1.716301
  Fe           6.031270        1.592789        2.894013
  Fe          -0.033788        6.344940        6.947126
  Fe           2.244029       10.214381        5.377188
  Fe           0.009228        7.016144       -0.012042
  Fe           0.852394        6.968928       10.484810
  Fe          -0.014835        3.706155        4.121963
  Fe           9.167880        5.178201        0.207865
  Fe          -0.001584       -0.002864       10.321720
  Fe           2.997794       10.323149        7.788623
  Fe           8.266426        8.760040        4.604932
  Fe           7.110699        7.777999        2.580563
  Fe           0.389067        9.373018        3.817815
  Fe           4.525448        8.939154        3.217355
  Fe           8.649819        3.435817        5.145966
  Fe          10.176129        2.866906       -0.001011
  Fe           4.317813        5.980175       -0.006575
  Fe           6.502262        2.115604        5.323735
  Fe          10.309727        9.598953        6.152891
  Fe           2.822204        5.345919       10.478281
  Fe           1.451215        1.785952        9.279107
  Fe           2.455201        7.969632        4.234714
  Fe           2.507193        0.380143        0.165853
  Fe           2.019311        4.500445        2.844808
  Fe           6.832258        8.689687       10.474636
  Fe           1.467929        2.677195       -0.032361
  Fe           1.307836        3.220614        6.218812
  Fe          10.473067        7.576955        4.247352
  Fe           4.264032        6.963212        7.464534
  Fe          -0.006215       -0.002374        4.952653
  Fe          10.066907        7.737487        8.238807
  Fe          10.465538        5.184324        5.353899
  Fe           5.764565        7.394519        4.791515
  Fe           1.831599        5.244670        0.118271
  Fe           7.605442        0.973864        7.385352
  Fe           4.686210        9.929185        9.966323
  Fe           2.993362        3.653421        8.555871
  Fe          10.262071        1.479846        5.232941
  Fe          10.424048        0.211146        2.023653
  Fe           0.128133        9.696279       10.482030
  Fe           7.838854        2.321267       10.513493
  Fe           9.067115        6.828661       10.474516
  Fe           7.197094        8.600166        6.882490
  Fe           0.920286        9.094635        1.170886
  Fe           3.870863        0.008003        4.314274
  Fe           0.888525        5.010953        8.883061
  Fe           6.505862       10.464622        2.793863
  Fe           0.000004        0.000013        7.632835
  Fe           0.388065        8.743471        6.267012
  Fe           6.560746       10.485452        5.321078
  Fe          -0.009578        1.500952        2.890697
  Fe           5.387522       10.483462       -0.005972
  Fe           3.525738        0.965271        8.086961
  Fe           7.899826       -0.061296        9.669478
  Si           8.006553        4.689011        9.640287
  Si           4.313815        3.447298        2.990065
  Si           3.765481        3.570497        0.526174
  Si           7.568543        9.448157        0.738449
  Si          -0.074862        3.839067        1.598272
  Si           8.212654        6.252644        4.927056
  Si           5.240674        8.140586        0.927598
  Si          10.050135       10.470742        0.334503
  Si           2.888191        6.751486        2.088552
  B            9.426301        8.908888        2.368397
  B            3.578910        7.661696        9.796566
  B            1.529666        8.393139        8.507171
  B            2.933862       10.519980        0.609733
  B            5.222766        0.046141        6.452114
  B            4.614550        3.561139       10.494041
  B           10.307756        1.059590       10.271210
  B            7.180744        6.889267        8.731870
  B           -0.063023        3.364578       10.547528
  B            8.182527        0.806092        3.959968
  B            2.335987        5.442406        6.856103
