FeSiB amorphous initial model generated by Packmol
1.0
10.4707450000 0.0 0.0
0.0 10.4707450000 0.0
0.0 0.0 10.4707450000
Fe Si B
80 9 11
Direct
0.5135567717  -0.0005543063  0.9080952692
-0.0000607407  0.0657601727  0.0472580509
0.4954308409  0.5477155637  0.2249885753
0.5257368984  0.5895168873  1.0012869189
0.1908783950  -0.0012123302  0.2495451852
0.8194883936  0.2072330097  0.1751349116
0.2785731101  0.0067526236  0.9954316527
0.5936898473  0.2858719222  0.0459556603
0.6424610665  0.3786370502  0.3383432602
0.2133657156  0.2087223975  0.3665677084
0.2781994022  0.7719421111  -0.0058651987
0.4396478952  0.2863365501  0.6415943660
0.8673057170  0.2844578872  0.7642960458
0.7116449689  0.6711499516  0.0012296164
1.0008100665  0.4037214162  0.9265801049
0.0172716459  1.0016464922  0.7721186983
0.3385506953  0.5159223150  0.4426919001
0.4978018279  0.4590678123  0.7998798557
0.4198689778  0.8672026680  0.5812533874
0.5771514825  0.2325415240  0.8343383398
0.1022713284  0.5646040468  0.4505878999
0.5465844121  1.0004839197  0.7377087304
0.7560018891  0.4837463810  0.6819294138
0.0140366325  0.5951111406  0.2279437614
0.5449622735  0.4898869183  0.5650310460
0.2048051022  0.0807390496  0.5707996900
0.4267859641  -0.0001447843  0.1639139335
0.5760115445  0.1521180203  0.2763903619
-0.0032268955  0.6059683432  0.6634796282
0.2143141677  0.9755161643  0.5135439742
0.0008813126  0.6700711363  -0.0011500614
0.0814071969  0.6655618105  1.0013432664
-0.0014168046  0.3539533242  0.3936647297
0.8755709360  0.4945398823  0.0198519781
-0.0001512786  -0.0002735240  0.9857674884
0.2863018821  0.9859039639  0.7438461160
0.7894783036  0.8366205079  0.4397902919
0.6791015348  0.7428314795  0.2464545741
0.0371575280  0.8951624741  0.3646173219
0.4321992370  0.8537266450  0.3072708771
0.8260939408  0.3281349130  0.4914613048
0.9718629381  0.2738015299  -0.0000965547
0.4123692249  0.5711317581  -0.0006279400
0.6209932531  0.2020490424  0.5084389888
0.9846221066  0.9167402129  0.5876268594
0.2695323017  0.5105576537  1.0007197196
0.1385971103  0.1705658957  0.8861935803
0.2344819781  0.7611332336  0.4044329224
0.2394474319  0.0363052486  0.0158396561
0.1928526576  0.4298113458  0.2716910783
0.6525092532  0.8299015018  1.0003716068
0.1401933673  0.2556833349  -0.0030906110
0.1249038153  0.3075821252  0.5939225910
1.0002217607  0.7236309355  0.4056399043
0.4072329142  0.6650159086  0.7128942592
-0.0005935585  -0.0002267269  0.4729991037
0.9614317797  0.7389624138  0.7868405734
0.9995027097  0.4951246545  0.5113197772
0.5505401001  0.7062075335  0.4576097498
0.1749253754  0.5008879502  0.0112953758
0.7263515633  0.0930080906  0.7053320466
0.4475526813  0.9482787519  0.9518255864
0.2858786075  0.3489170064  0.8171215133
0.9800707591  0.1413314907  0.4997677816
0.9955402409  0.0201653273  0.1932673368
0.0122372381  0.9260352535  1.0010777648
0.7486433869  0.2216907202  1.0040826130
0.8659474565  0.6521657246  1.0003601463
0.6873526191  0.8213518713  0.6573066195
0.0878911672  0.8685757317  0.1118245168
0.3696836281  0.0007643200  0.4120312356
0.0848578587  0.4785669979  0.8483695286
0.6213370682  0.9994152279  0.2668256175
0.0000003820  0.0000012416  0.7289677096
0.0370618328  0.8350380990  0.5985258929
0.6265787200  1.0014045801  0.5081852342
-0.0009147391  0.1433472021  0.2760736700
0.5145309145  1.0012145268  -0.0005703510
0.3367227451  0.0921874231  0.7723386445
0.7544664682  -0.0058540247  0.9234756457
0.7646593437  0.4478201885  0.9206877830
0.4119873992  0.3292313966  0.2855637302
0.3596192057  0.3409974171  0.0502518207
0.7228275543  0.9023385633  0.0705249722
-0.0071496345  0.3666469769  0.1526416697
0.7843428524  0.5971536887  0.4705544830
0.5005063155  0.7774600566  0.0885894939
0.9598299834  0.9999997135  0.0319464374
0.2758343365  0.6447951889  0.1994654631
0.9002512238  0.8508361153  0.2261918326
0.3418008938  0.7317240559  0.9356130820
0.1460895094  0.8015799258  0.8124704594
0.2801961083  1.0047021487  0.0582320551
0.4987960265  0.0044066587  0.6162039091
0.4407088512  0.3401036889  1.0022248656
0.9844338679  0.1011952827  0.9809435718
0.6857911257  0.6579538514  0.8339301549
-0.0060189604  0.3213312902  1.0073330981
0.7814655977  0.0769851620  0.3781935287
0.2230965418  0.5197725663  0.6547865505
