Li3PO4 amorphous initial model generated by Packmol
1.0
17.1025338854 0.0000000000 0.0000000000
0.0000000000 17.1025338854 0.0000000000
0.0000000000 0.0000000000 17.1025338854
Li P O
192 64 256
Direct
0.4068792406 0.0978287785 0.5266711389
0.1520897440 0.5862455860 0.5499577468
0.6393110561 0.9143561477 0.8151615482
0.6510627650 0.0785086590 0.0143268244
0.5253516269 0.9247781706 0.6914588259
0.9689194660 0.2661818436 0.2345287562
0.0000026312 0.5077361085 0.9468525605
0.3644585675 0.2872007758 0.2729837597
0.7860700695 0.1562847949 0.1891876386
0.7072914506 0.0058256865 0.5145109525
0.9794721713 0.3584930772 0.7119540930
1.0000262601 0.4255034399 0.8039125718
0.6766631236 0.6463511240 0.2582170005
0.3634123482 0.4700556101 0.6979577459
0.2483654778 0.1168763069 0.7103132835
0.9399304868 0.8054005969 0.9168399317
0.0297510885 0.7993687422 0.9984617551
0.3077181449 0.7003275117 0.6694840704
0.5309862890 0.0252425753 0.8774902070
0.1124857295 0.6846678439 0.1165914369
0.9816228468 0.6163740455 0.9849731106
0.8081940426 0.5222242540 0.7398430598
0.3430760634 0.2576481374 0.0310338809
0.6508783479 0.7557492408 0.2237680115
0.1840896806 0.5140040686 0.6612847006
0.4264252916 0.7646830632 0.6191848571
0.0554809601 0.7555607892 0.7316885956
0.6379958709 0.9100226378 0.0246458801
0.1375429522 0.7210249711 0.6270794768
0.0112003871 0.4105838963 0.4840917174
0.5479613759 0.5785988829 0.1561273328
0.7221524063 0.8232111156 0.7430581389
0.1798356911 0.1719684942 0.1390872263
0.5614701344 0.3619947220 0.2417679174
0.4642663510 0.5310230087 0.2415461959
0.6975612550 0.7297211094 0.3345720019
0.3377335802 0.9572411381 0.8876650736
0.5573119787 0.9561784885 0.2686185001
0.8405242812 0.2635924612 0.4196985106
0.4699298393 0.3241080554 0.3467518930
0.8932958182 0.6788908636 0.1024842875
0.7160119712 0.7924825696 0.8901941140
0.9455380184 0.7506434477 0.6276727222
0.2501636324 0.4332306575 0.9639989086
0.3287746738 0.7119816912 0.0709767926
0.0184485528 0.7418625266 0.5379257870
0.0927560215 0.1936208413 0.4432112838
0.7425214348 0.4722381522 0.5765721072
0.9999649827 0.3532106436 0.9020686118
0.4897193630 0.1465331405 0.6621867307
0.4109002822 0.1375714859 0.0290626525
0.7637727303 0.7330524286 0.2150902331
0.5293673476 0.3101926320 0.5572286577
0.9158889031 0.0573868765 0.9999507158
0.3742170630 0.1406261795 0.7013374790
0.2520628247 0.6095918342 0.6276710850
0.7330622517 0.0668341900 0.9345365492
0.2203075886 0.6566595380 0.7319837566
0.0560554364 0.5136051803 0.4581572563
0.2747843701 0.8849971648 0.7175996892
0.7778375467 0.6193172936 0.2101395047
0.3177333275 0.3224064362 0.7459940782
0.4733923087 0.1101395859 0.3706384120
0.3315785274 0.4257804164 0.3538745803
0.5652513285 0.3520755486 0.9582973558
0.3245003365 0.9370236076 0.0242031387
0.0150989907 0.0701622349 0.8933067522
0.1843491743 0.8168518825 0.2207636614
0.4347311369 0.5228473196 0.7782763706
0.2925981047 0.4436665965 0.2006160621
0.2485142862 0.7134717044 0.2623411846
0.9588555772 0.8983985123 0.2341125021
0.8648667560 0.8449452050 0.4697999170
0.6019120950 0.6519859031 0.0845878751
0.5267287912 0.4599426057 0.5220717035
0.8987841277 0.0413227657 0.6074956535
0.8418902191 0.2446533963 0.8032796246
0.9998757561 0.8900914392 0.3458736606
0.1564946468 0.1852174667 0.6962646050
0.0393936948 0.0910130049 0.7073167684
0.3024792136 0.4845280855 0.8629297330
0.2678659215 0.1772835546 0.9445537198
0.5262241876 0.1391805458 0.2266600976
0.6261020193 0.8053714199 0.5424248279
0.8362722212 0.7972957160 0.3688056426
0.7179087662 0.5158035095 0.8118939622
0.9116257336 0.5481106521 0.6651337209
0.6831863090 0.8762370009 0.2194214626
0.9296383861 0.8984081016 0.6983690300
0.9217434157 0.0860719242 0.5034133572
0.1332827647 0.9452871199 0.5611425222
0.5259990163 0.5689716544 0.8321351734
0.2121654033 0.8675023888 0.8787203172
0.1196791080 0.3324330206 0.8275505311
1.0000566065 0.7733220170 0.3994551945
0.1522408912 0.0487240081 0.7330626025
0.2790914511 0.5785736234 1.0000004745
0.4447460856 0.1021277322 0.8797495214
0.0273803872 0.2772062334 0.9851976387
0.1632658657 0.6960541099 0.8382974766
0.6243743805 0.3946627468 0.0748708939
0.9740922668 0.5543019569 0.3454377018
0.9277286106 0.7481731705 0.0166048494
0.7577899911 0.3522583285 0.2337898598
0.8210454132 0.2412846557 0.6080560968
0.8011335099 0.2913930786 0.9209641159
0.4205169274 0.6468461968 0.7696385277
0.8743231909 0.7703885336 0.8241119178
0.7102049370 0.6541894362 0.1243568359
0.8769062585 1.0000057368 0.1622895776
0.8712584404 0.3055122144 0.7093372878
0.7274810320 0.9827167198 0.0571186706
0.5084012731 0.3521536657 0.0585599775
0.9985783460 0.9094151840 0.8598691339
0.2716634875 0.3612624329 0.0648820232
0.1889390789 0.7306470540 0.5239444085
-0.0000007601 0.5800459784 0.5370541033
0.0369624761 0.8705410613 0.0920311581
0.8817521486 0.1779171449 0.0884770649
0.1589777292 0.2387492419 0.5264196557
0.4546782981 0.5619283706 0.0899077885
0.7941643087 0.9161784508 0.6318896412
0.2950201434 0.7290761172 0.4034496319
0.2998699511 0.4683318305 0.4565637497
0.1385067859 0.4189422484 0.7398717105
0.4368301826 0.2577525079 0.0986821024
0.0636627886 0.2160511433 0.7575268721
0.8094930899 0.0648288147 0.2563753435
0.6160253838 0.9998810770 0.7241139870
0.4536977416 0.8968909580 0.1161031467
0.8107509152 0.3372559902 0.3354619870
0.6618543823 0.1626691705 0.7733023123
0.6799539225 0.3915836124 0.6326105870
0.8426767692 0.5984800889 0.9453502100
0.7141882064 0.4531280600 0.2968053760
0.0609096878 0.3977770806 0.3806522498
0.7127690015 0.4225544032 0.0040193459
0.9794374396 0.0262306161 0.2091390097
0.0925996704 0.0788642788 0.5767109755
0.7706950963 0.4994565166 0.1273320676
0.8212975980 0.4347363993 0.0457731004
0.5837624452 0.6864750030 0.8185808076
0.8882461571 0.6020858119 0.4244126074
0.5454173670 0.4569771972 0.0180437590
0.8059144389 0.7421299139 0.7110973778
0.8363142617 0.6348706614 0.6792779993
0.8133417594 0.7553111771 0.9397309257
0.1099621853 0.6646733213 0.9360569672
0.1109147927 0.8152053429 0.5350848629
0.3544342634 0.7543711994 0.7776410846
0.6505413218 0.6745654812 0.9776182355
0.5963414584 0.2408734301 0.9613120553
0.1033460312 0.2901914438 0.3804845553
0.1242367952 0.9633182492 0.0198767038
0.1120046896 0.5927089558 0.0291031144
0.3565397994 0.1455275000 0.8149705239
0.9309360301 0.9999960307 0.7659551554
0.2126798885 0.4277262685 0.3906716423
0.0719771706 0.5368052513 0.1804600430
0.1068862083 0.9707232338 0.1368974338
0.6072425916 0.5350291402 0.4467375449
0.7309009345 0.2523845898 0.3285349433
0.8094206445 0.5191674555 0.4075089719
0.6919699782 0.6895360114 0.7781722924
0.6517243044 0.2755425618 0.1674844219
0.3841953505 0.4210675475 0.8005190980
0.6095048295 0.8238929444 0.1404025284
0.1847854254 0.4756443141 0.5513345018
0.6702636040 0.5851548120 0.7321818559
0.4072485426 0.4231095257 0.1963677442
1.0000058538 0.6622954280 0.1442068770
0.4070443039 0.7864654495 0.9365568931
0.5559891922 0.8961003734 0.8938358551
0.7054342988 0.8325465744 0.3990125116
0.1027803840 0.5389737604 0.9037645593
0.0701048165 0.4699646879 0.5639820429
0.4351400822 0.2126267385 0.3330066783
0.4566325114 0.3902002501 0.9499926215
0.4471042742 0.5831306090 0.3432492541
0.2196359338 0.0310828210 0.0218010970
0.5088164162 0.0332970543 0.6236434362
0.2409529505 0.9142307277 0.5329589207
0.0964217356 0.0729554467 0.3018967268
0.4279212688 0.1115682046 0.1715018382
0.2164759927 0.9260379840 0.1085567210
0.6942387064 0.2998998882 0.8427238967
0.5577809150 0.6692311254 0.5568937950
1.0000012346 0.7757985506 0.1678769953
0.8958001839 0.9586974720 0.8678131615
0.9118252947 0.9480761219 0.0312466564
0.2959244539 0.0218080550 0.6655385147
1.0001882829 0.9803187126 0.9639351754
0.9183191862 0.7170031694 0.3205940147
0.9481278101 0.3677187861 0.1191335163
0.4214184312 0.8734833739 0.7920688882
0.9656022383 0.9213131870 0.5446783537
0.5651204707 0.8917492637 0.4327396776
0.8668628344 0.6525133103 0.8379726125
0.7490102979 0.3080192114 0.0651513400
0.5630707160 0.1835021068 0.0860787653
0.3994619187 0.6437958301 0.9095032996
0.4468039678 0.7606482810 0.1305656820
0.6543617498 0.5819659863 0.6051753541
0.8785181834 0.4271219720 0.5633085170
0.3692869748 0.9214943882 0.2454774262
0.7147334472 0.5599784257 0.9324124780
0.2885030974 0.0613636556 0.8569316160
0.6680894817 0.4113821406 0.4220866363
0.4918554207 0.3698970014 0.6749716783
0.8492536894 0.1447394296 0.9095780838
0.6117995772 0.5513896983 0.2582074112
0.8792650318 0.2079710541 0.2782930314
0.1178654002 0.6173864102 0.3909706038
0.1134519021 0.1426194514 0.8894266839
0.1437074773 0.3448779602 0.1742705508
0.7775152553 0.8258179223 0.5577693378
0.9151108312 0.4269012445 0.3587759008
0.5238705013 0.2069061242 0.5065628905
0.3095330806 0.6081585378 0.5040589341
0.7919021878 0.9014687592 0.9348287281
0.4565737482 0.5865396360 0.6376337608
0.2314059441 0.7689531907 0.9601163845
0.9450028346 0.0718433893 0.3653435241
0.1913985975 0.5269612714 0.8017206744
0.7894702674 0.9407010159 0.7444047230
0.5835354613 0.7836238238 0.9694309692
0.6759487265 0.0514384012 0.1564233708
0.6138827188 0.1491905245 0.6697259644
0.9582547305 0.2084972334 0.5006721844
0.2918145366 0.0986180183 0.1210758016
0.4090409671 0.7949550102 0.3918363235
0.2833487735 0.3155052951 0.9026713295
0.6084180900 0.2491170623 0.3104829399
0.8442847181 0.8255641003 0.1135318902
0.8834053539 0.4071214270 0.8092929441
0.6723007291 0.0668593325 0.3923840786
0.6208329755 0.1385158489 0.9036182067
0.8944535998 0.5426122271 0.2219169993
0.6118854124 0.4243844829 0.8183057606
0.2775054288 0.2158421100 0.5751566444
0.7617458376 0.0810421432 0.5830276418
0.1290260271 0.8951088828 0.7284351011
0.3535719935 0.3885130148 0.5502550127
0.4196237849 0.4511708061 0.0779624826
0.4680274311 0.2653106861 0.8325576839
0.4300793701 0.9327692088 0.5527032464
0.5802632561 0.7878144894 0.6783668477
0.1474315453 0.8853844174 0.3388607231
0.7336260863 0.6597087938 0.4581677225
0.4726997797 0.4330981040 0.4056007166
0.2583550502 0.0567460358 0.4706803129
0.7736210370 0.9094245393 0.3139181618
0.2657360617 0.1838859681 0.2997424846
0.0704051814 0.3652289796 0.6417106420
0.3404092656 0.6009411862 0.2508686741
0.7075686025 0.2803402135 0.5421575576
0.9312321851 0.8020457139 0.2939643350
0.9049973591 0.7151249681 0.4096284239
0.9908648691 0.6677753762 0.3000544267
0.8461822147 0.6830665607 0.2787288148
1.0001668826 0.4070472859 0.1812087040
0.9461058875 0.4187388283 0.0449648576
0.8646050403 0.3584584039 0.1514803606
0.9816334300 0.2866305094 0.0988801432
0.3489311607 0.8520296523 0.8409918727
0.4353089460 0.9623464049 0.7963740397
0.4080161482 0.8493159024 0.7063691896
0.4934174700 0.8302414774 0.8245404508
0.9895299207 0.8988846391 0.4608180316
1.0000403516 1.0019504779 0.5651666627
0.9970370539 0.8597180452 0.6023499833
0.8758015099 0.9246995858 0.5503786786
0.5897047226 0.8387647758 0.3642094816
0.5057057661 0.8482070608 0.4845286117
0.5274459364 0.9669277729 0.4005379581
0.6376253994 0.9130975038 0.4816825422
0.9047809584 0.6798578549 0.7610140747
0.8564736722 0.5630870878 0.8361982555
0.7864417688 0.6918908087 0.8474589846
0.9197548799 0.6752173729 0.9072191351
0.7313857750 0.3742843629 0.1235159664
0.8303663712 0.3209095820 0.0287761453
0.6867262523 0.3079433747 0.0001219702
0.7475629100 0.2289395259 0.1081912781
0.5557267750 0.0957886130 0.1050664195
0.5044822631 0.2051821691 0.0212289595
0.6467850948 0.2012391277 0.0580532690
0.5452887895 0.2317985760 0.1599664131
0.3318500661 0.6987440621 0.9322511569
0.4636119451 0.6909552163 0.8674450873
0.3686485314 0.5794277074 0.8545906179
0.4337370737 0.6060563931 0.9837264532
0.4505989610 0.8019387707 0.0506355962
0.3640638306 0.7694344059 0.1649894699
0.5067011741 0.7979593604 0.1864972186
0.4658519640 0.6732605284 0.1201405601
0.7375390152 0.5943487712 0.6373674260
0.6500319821 0.6126151289 0.5206175915
0.5953783263 0.6267533847 0.6563922677
0.6344976173 0.4941467186 0.6063240728
0.8877737709 0.3634749121 0.5002886156
0.9592891971 0.4474496032 0.5975278323
0.8248786463 0.3967798600 0.6289613032
0.8421311191 0.5007835715 0.5264564339
0.3560566546 0.9780209829 0.3143093319
0.3293894950 0.9542068508 0.1716789465
0.3340742979 0.8410721532 0.2654887299
0.4576275102 0.9126776830 0.2304327550
0.7820407835 0.5074606522 0.9037815159
0.7432286985 0.6103549375 1.0013933090
0.6458618398 0.5085484442 0.9592412510
0.6878024671 0.6135497272 0.8652338361
0.3420611261 0.0280056162 0.7926906089
0.3384766280 0.0872685890 0.9272147102
0.2301939599 -0.0019889450 0.8832871258
0.2432807342 0.1321694209 0.8245339606
0.6414978081 0.3253814340 0.4242970690
0.7548767970 0.4153654100 0.3984175705
0.6574843865 0.4481825355 0.5035813440
0.6184990523 0.4565991830 0.3620505617
0.4892041177 0.4122387973 0.7543962834
0.4617396494 0.4250906356 0.6105136274
0.4398283933 0.2964808042 0.6783449796
0.5766495226 0.3457777683 0.6566317059
0.8975512695 0.0721878412 0.8869562897
0.7799521457 0.1535712788 0.8527677301
0.9013183136 0.2180661079 0.9050396335
0.8181931458 0.1351323152 0.9935487404
0.5564504689 0.6223158551 0.2619596622
0.6580105074 0.5534327874 0.1809513737
0.5635950243 0.4754469750 0.2623491952
0.6691422497 0.5543631759 0.3275695308
0.9176239676 0.1561598426 0.2154256220
0.8062960198 0.1665142147 0.3109271431
0.8552419249 0.2866854720 0.2417545861
0.9378981563 0.2225246870 0.3450648915
0.0505153801 0.6362882292 0.4476699799
0.0840101829 0.5941896135 0.3108216031
0.1665471923 0.5491554680 0.4238757279
0.1703889037 0.6899122714 0.3815150459
0.1517057073 0.0801701087 0.9418180433
0.0408063510 0.1760930293 0.9307820763
0.0889422006 0.1052872055 0.8112364573
0.1723533495 0.2089273451 0.8738701587
0.2243529541 0.3512049758 0.2138230524
0.1455669678 0.2792503749 0.1126451211
0.1236699786 0.4230336305 0.1342915626
0.0812400086 0.3260228009 0.2363223501
0.7740678714 0.7622329584 0.4941046196
0.8579300061 0.8234646453 0.5982175547
0.7128548952 0.8108896666 0.6186324243
0.7652081901 0.9066844775 0.5201227525
0.9172482923 0.3392347028 0.3792240988
0.8379146094 0.4459959004 0.3165353179
0.9845000813 0.4468738405 0.3049766798
0.9207804005 0.4755005927 0.4343674481
0.6062831432 0.2266726104 0.5369861017
0.5225356114 0.1220464765 0.4764766469
0.5024419807 0.2629090537 0.4393868213
0.4642212700 0.2159964146 0.5734019336
0.2371928644 0.6326729169 0.4563717898
0.2907600145 0.5335598842 0.5508643376
0.3319111681 0.6743753339 0.5608275981
0.3782682171 0.5920259575 0.4481720692
0.8198801472 0.9862264336 0.9467243339
0.8193316905 0.8508136921 1.0040371862
0.8264106415 0.8689328201 0.8582865029
0.7019863302 0.8999022077 0.9302668310
0.4799053786 0.6661839162 0.6725701628
0.4798007743 0.5839457514 0.5506745412
0.3675558278 0.5753322324 0.6452712840
0.4990329537 0.5206967026 0.6820189966
0.2333435517 0.6883941923 1.0002986174
0.2903382641 0.8239422354 1.0002576293
0.1486188548 0.8037651667 0.9666395115
0.2533232227 0.7597112853 0.8732696629
0.8794688027 0.1215104741 0.4020394899
0.9918378244 0.1221823043 0.3072005608
0.9088124078 0.0017231949 0.3219668522
0.9998923618 0.0419575839 0.4301671348
0.1618828542 0.4551243139 0.8472881327
0.1250939781 0.5589279965 0.7498558451
0.2611328842 0.5031151558 0.7499846564
0.2174846151 0.5906776778 0.8597540048
0.8312146665 0.8609168734 0.7445713065
0.7802573636 0.9699327662 0.8290732294
0.7081882767 0.9319693273 0.7066538842
0.8382206459 0.9999850382 0.6973204134
0.5392615540 0.8556005267 1.0005323255
0.5431751846 0.7086216043 0.9986514931
0.6685153251 0.7855062934 0.9991462736
0.5831897230 0.7847668123 0.8793937261
0.7427577156 0.0002393213 0.1884130750
0.6231310560 0.0018784351 0.1029235791
0.7105451789 0.1199439226 0.1093255545
0.6273608970 0.0836919845 0.2250313916
0.7005668914 0.1248495114 0.6709485318
0.5781109435 0.1288114975 0.5896435036
0.6074137943 0.2378946902 0.6837916579
0.5694393044 0.1052062818 0.7345202228
0.9844747634 0.1595012773 0.4298199933
0.9794050468 0.2949289289 0.4868753400
0.9999684324 0.1788460716 0.5747592764
0.8691706211 0.2007127144 0.5112340697
0.3608384606 0.0503697876 0.0892021621
0.3225683420 0.1604745249 0.1788347867
0.2340855470 0.0440430059 0.1634674732
0.2497657966 0.1395848133 0.0527987844
0.4756885766 0.8519203118 0.3713138090
0.4123300119 0.7238118096 0.3367368273
0.3298428781 0.8367133254 0.3822427743
0.4183023433 0.7673746527 0.4770517664
0.3490642989 0.3478519054 0.9550478373
0.3161298809 0.2498536783 0.8504852028
0.2509367342 0.3816541481 0.8508842080
0.2172642384 0.2826613315 0.9542682452
0.6584423732 0.1911451263 0.2631020076
0.6479387835 0.3300255996 0.3102567161
0.6006412891 0.2197481979 0.3952480402
0.5266498555 0.2555493256 0.2733249957
0.7904178463 0.8972874489 0.1056423576
0.9252271684 0.8448889560 0.0791371623
0.8084873910 0.7560790750 0.0688271696
0.8530064666 0.8040008043 0.2005208715
0.8922504760 0.4439917530 0.7276200172
0.9302199959 0.3302810003 0.8127660552
0.7964485316 0.3900379350 0.8252553156
0.9147024122 0.4641750780 0.8715304469
0.7052200616 0.1455204250 0.3634551489
0.6297000826 0.0791513123 0.4707563835
0.7398529414 0.0084223192 0.4037830328
0.6144298307 0.0343433320 0.3315416323
0.5551890769 0.1063771025 0.9562119338
0.5881811472 0.2045388142 0.8518210283
0.6525949941 0.0723557110 0.8514441250
0.6873667422 0.1707917680 0.9549957398
0.8587305307 0.5718580104 0.1446080456
0.9764554254 0.5782810937 0.2324787676
0.9008058749 0.4528125512 0.2199705626
0.8418223929 0.5674973115 0.2906106799
0.6021642798 0.5030226549 0.7755312218
0.6777820221 0.4313266706 0.8792776030
0.6327675813 0.3601854580 0.7587193270
0.5348275911 0.4030030898 0.8596949492
0.2120136714 0.1549117819 0.5854742383
0.2634266378 0.2848358046 0.6312795561
0.2775558892 0.2457639919 0.4902284104
0.3570255753 0.1778568030 0.5936443727
0.8157334517 0.0441578426 0.5211162895
0.8108522452 0.1305110117 0.6400321188
0.7194328678 0.0159109172 0.6285871481
0.7009647272 0.1335886843 0.5423748938
0.1882450297 0.9318029777 0.7854858286
0.0998329260 0.9579592188 0.6709396442
0.0592365439 0.8620651243 0.7747564828
0.1687895501 0.8286083276 0.6825585658
0.3935796324 0.4645426259 0.5232916982
0.3035288241 0.4051799018 0.6232346664
0.4162766200 0.3270610681 0.5702529266
0.3009028390 0.3572685803 0.4842408766
0.4368152725 0.4919916579 -0.0004354326
0.3869137196 0.3687434296 0.0623450307
0.3591008234 0.4992199435 0.1241835283
0.4956653240 0.4447283105 0.1257569208
0.4846964231 0.2086227704 0.9005043407
0.5453846817 0.3014410633 0.8039467188
0.4130024269 0.3307284194 0.8608577594
0.4290263097 0.2204505499 0.7649218582
0.4256631824 0.9628685498 0.4679527638
0.3915226858 0.9926027987 0.6078526182
0.5163013890 0.9215727977 0.5761241034
0.3868302817 0.8540326304 0.5588836171
0.6450265250 0.7309705149 0.6522399590
0.5274772768 0.7473284418 0.7390516566
0.5309245437 0.8119446564 0.6070117486
0.6176247959 0.8610142859 0.7151639682
0.1172786450 0.9396354428 0.2736245419
0.1094395142 0.9085743729 0.4171356156
0.2368952476 0.8932007445 0.3454392805
0.1261127161 0.8001272263 0.3192433961
0.7694487313 0.6559773584 0.5406961952
0.7126451602 0.5765400066 0.4307655842
0.7932024044 0.6959465819 0.4011974510
0.6592081077 0.7103712866 0.4600117768
0.4007959315 0.3892946533 0.4375260444
0.4693567663 0.4347146481 0.3156321769
0.5477294220 0.3909475663 0.4320960888
0.4729168820 0.5174356069 0.4371486149
0.3407875137 0.0592047358 0.4345283015
0.2056368386 0.0027439794 0.4215611586
0.2235599722 0.1397899291 0.4717492188
0.2634358762 0.0252455573 0.5548826311
0.6989977088 0.9594647267 0.3079633717
0.8355209290 0.9409019218 0.2565970651
0.7541985934 0.8239811185 0.2931741012
0.8057670338 0.9133503903 0.3979381094
0.2016778346 0.1206065729 0.3003639715
0.3463931158 0.1448594119 0.2908262035
0.2630963944 0.2300279027 0.3770217351
0.2517769606 0.2400500433 0.2307579115
0.1014040382 0.3141123436 0.7090477400
-0.0003246303 0.3247526967 0.6034081306
0.1353146859 0.3766384001 0.5803534182
0.0452266901 0.4454126535 0.6740333378
0.4171556711 0.6337863777 0.2171149038
0.2746826307 0.6096128837 0.1899347794
0.3184658505 0.6464964241 0.3253759377
0.3513329686 0.5138690593 0.2710490756
0.7858969957 0.3245988599 0.5384198074
0.7029143214 0.2340204105 0.6192350251
0.7018757034 0.2234727921 0.4725744182
0.6395875063 0.3392688498 0.5384009213
