Li3PO4 amorphous initial model generated by Packmol
1.0
17.1025340000 0.0 0.0
0.0 17.1025340000 0.0
0.0 0.0 17.1025340000
Li P O
192 64 256
Direct
0.3001695538  0.3407546507  0.3455187986
0.1753574646  0.6814550405  0.2015355736
0.1106845336  0.6919276991  0.8632397398
0.2194870655  0.7023208958  0.7764904897
0.3314201860  0.8582893623  0.2110661496
0.4507090587  0.8025720633  0.0031290100
0.7010499731  0.1853227130  0.6350830234
-0.0001318518  0.9290548406  0.7767674077
0.8724365056  0.7998144018  0.6313901788
0.2232116597  0.9478566743  0.3324666976
0.9923908937  0.4170102512  0.2362231819
0.9163744390  1.0000525653  0.7183612089
0.5622995984  0.4275199804  0.2577175406
0.4726962098  0.7795124980  0.1808698641
0.3011934957  0.4290014567  0.4629216349
0.7480323091  0.0125556248  0.7583860380
0.5793179537  0.9988717461  0.6461352452
0.6609662054  0.8760025269  -0.0010637605
0.8134721440  0.7972563598  0.9599754633
0.7125572737  0.0544451483  0.1745166535
0.6795343895  0.0665341171  0.9826373098
0.5276919783  0.0600763021  0.1479294238
1.0006237087  0.1267786984  0.9235817920
0.8699138385  0.5451113852  0.1774117216
0.9244820095  0.3102388804  0.2425896069
0.7111237434  0.2875389694  0.6883854170
0.3701181357  -0.0009689792  0.4676782984
0.1251054376  0.2648950734  0.0567091988
0.2329912632  0.9338659990  0.0572660753
0.9740724386  0.7758928589  0.4262477128
0.3769848375  0.5855269167  0.7452733028
0.6004554062  0.8335799245  0.8776547967
0.7013198161  0.9356145703  0.4713402704
0.6246567322  0.1241931751  0.4420649010
0.2425569217  0.6031115038  0.3014691273
0.9484166498  0.8660545858  0.7797330501
0.1402377566  0.9963862665  0.8235432246
0.1041966062  0.9942061802  0.6860966919
0.5054899467  0.8562168039  1.0004075419
0.6521521314  0.1259157269  -0.0000381815
0.6703763898  0.0559782545  0.8376983200
0.0654108917  0.1112970745  0.3833299206
0.3524819188  0.5242079916  0.0120317258
0.4754277349  0.2164884455  0.8093791248
0.6832092250  0.6270666090  0.9689446020
0.9323775646  0.9822739718  0.5046164504
0.3069660905  0.2797431655  0.6683597881
0.4521750987  0.8657406557  0.7972771754
0.3271418142  0.3875987617  0.5901102141
0.8287946687  0.4483661895  0.9127957880
0.3514211988  0.9975853286  0.9853254494
0.5467656430  0.0963829687  0.8235000147
0.3483614767  0.5029799678  0.5542539486
0.1161767022  0.6326996339  0.7639833372
0.1791581294  0.8796321060  0.2343944470
0.8751111970  0.4589664315  0.2927770236
0.3229324964  1.0003628117  0.0870448204
0.1711738740  0.0921384515  0.7070896629
0.9434230623  0.0848716921  0.3211490765
0.4841290770  0.6608414285  0.2432060653
0.3609155813  0.1327067673  0.2806499318
0.4621812768  0.7062364560  0.0893481048
0.2263613100  0.7322585647  0.0778720861
0.2042577433  0.0830518448  -0.0000000000
0.0038485525  0.3382843151  0.8630778340
0.6066905641  0.5190000499  0.5555701278
0.9352924543  0.2283911846  0.6188105225
0.4305332765  0.0762033275  0.8592012739
0.3568616206  1.0002460454  0.3819639826
0.8150221482  0.2089302088  0.2023413606
0.8642067895  0.2587047627  0.1002340355
0.5925038945  0.1445571165  0.3228890526
0.7609606272  0.7991018758  0.3656446466
0.0491020220  0.2240276792  0.8391644770
0.1052391418  0.9494357971  0.4351584391
0.6881320043  0.3959458288  0.0136491470
0.5550728331  0.7600208835  0.2599669148
0.7164228412  0.6509676285  0.5529691682
0.4329822119  0.6015456540  0.5542092184
0.1009677279  0.2323059261  0.5730594075
0.1973642035  -0.0007041062  0.7899172134
1.0001079372  0.2971146849  0.5366521125
0.3372869775  0.7730194835  0.0898012540
0.6625212381  0.5986856100  0.0726536196
0.8797899773  0.8984219531  -0.0000044438
0.9149781547  0.2537457315  0.7974439343
0.8239774293  0.5279349247  0.5248677184
0.5453544486  0.8734632540  -0.0000581200
0.2156792087  0.4838369566  0.3770280474
0.8637604813  0.0080047787  0.9796796779
0.4751511677  0.2608000662  0.2291327706
0.6749041399  0.7443312786  0.8864703909
0.9194708223  0.0799556370  0.8556071282
0.8451984951  0.8900962863  0.7332356129
0.3658871837  0.7121561051  0.2752983271
0.8044389212  0.2806305194  0.7565104680
0.2516484399  0.6914211660  0.4430108427
0.2107819227  0.2548617649  1.0008496986
0.7321998600  0.9836897854  0.9774573171
0.4961851852  0.3382805729  0.1013687211
1.0000612190  0.0665120151  0.4597443864
0.3534433552  0.8713000658  -0.0001218533
-0.0000001754  0.9966283944  0.5659549047
0.8490960462  0.0475125499  0.2157479120
0.5082093098  0.5772277371  0.8406557765
0.1828189904  0.3097146891  0.1713238518
0.6553745194  1.0008683509  0.7334258771
0.3037301373  -0.0000298201  0.6672181444
0.6617339863  0.5125812350  0.9579952889
0.3728395453  0.1027932469  0.0135087584
0.8085180243  0.6241234194  0.4623592036
0.7619401312  0.3857740613  0.7801340433
0.2831732420  0.5823947492  0.4745953436
0.7851582695  0.0374528710  0.6423791936
0.5246471663  -0.0000108171  0.5436454621
0.4142563903  0.1688136974  0.9296273289
0.8744669065  0.2340534449  0.4914655337
0.2890427816  0.1637799989  0.7884039289
0.0373967975  0.6278439207  0.9257044015
0.0515236514  0.9190991814  0.3286798319
0.7818058423  0.1687152910  0.5275966708
0.4733299755  0.9876208403  0.7528293176
0.9605547342  0.2958660980  0.4041203485
0.8688002608  0.4453421347  0.7102808274
0.0564515761  0.7778832072  0.9204890340
0.6052159288  0.1924501363  0.1923389247
0.4903505527  0.8045446365  0.8980529435
0.8233785122  0.2234098760  0.6575509805
0.1375120786  0.9692768920  0.5618004911
0.6089324541  0.8719714283  0.6420037522
-0.0000706913  0.2705364597  0.3594425247
0.0934887777  0.3982050262  0.9097374108
0.9026885139  0.3843789464  0.0498141971
0.9796540092  0.0338628767  0.7055310634
0.7744652927  0.5388301523  0.9600832836
0.8099064735  1.0000353749  0.8919249627
0.7624378937  0.1442551145  0.1099289146
0.7036621006  0.5259210711  0.4899934711
0.2040087744  0.8966947822  1.0005250099
0.6085030441  0.2663673699  0.6377282454
0.7383625140  0.0528711710  0.3221362986
0.7738919858  0.5871235806  0.7358450508
0.4646977460  0.1474748713  0.6422176971
0.3611695787  0.1654895701  0.6912673292
0.1310652562  0.2419012294  0.9188078211
0.3004697433  0.2600592988  0.5517156697
0.1728681259  0.1470876187  0.8187685521
0.8836545508  0.6757668776  0.1944943363
0.2605049053  0.6201610241  0.7069908471
1.0000149101  0.5579511785  0.6901086704
0.5241799256  0.2048863052  0.5613231934
0.1982365888  0.3549404433  0.9350577523
0.2133962722  0.1231090668  0.5656734844
0.4487816835  0.2534709769  0.4881743840
0.2333312713  0.2573787019  0.3901893135
0.2605457180  0.1872144794  0.0355251450
0.0085943405  0.2129106716  0.4853890073
0.5043458472  0.6013345742  0.0316506899
0.6738621891  -0.0000311065  0.5187185712
0.2131277155  0.7919522335  0.5068851201
0.8192935620  0.1818100172  -0.0000292354
0.9847346013  0.6150063494  0.8286341661
0.8269447089  0.3725200020  1.0002208445
0.9788086374  0.2285459570  0.0494264768
0.2074188538  0.4289860789  0.1146806081
1.0000918577  0.8614823394  0.1965352035
0.9676411110  0.9228588582  0.5974666678
0.8529381085  0.5812636303  0.6514665605
0.9838746703  0.8277941737  0.6668610043
0.1508214514  0.7368339101  0.9998951617
0.5256087197  0.5846320200  0.3589538837
0.0254448259  0.1695125997  0.2547013209
0.4791340862  0.4971187895  0.2990105443
0.6228714996  -0.0000005262  0.2329981627
0.5821003484  -0.0002404907  0.7621821421
0.8318891809  0.8701353846  0.8464342769
0.7482798748  0.2341637795  0.9201345251
0.4293262624  0.7139268953  0.8588616166
0.2421854563  0.9287400335  0.4451737386
0.4515423855  0.1183898830  0.7534741343
0.5668313830  0.0227116052  0.4223968214
0.7356115182  0.3803756800  0.9225784904
0.3641192586  -0.0006276848  0.9141426060
0.5960067672  0.1724916319  1.0000648442
0.6029603566  0.2907598371  -0.0001902642
0.5869514424  0.5806233158  0.6896507266
0.5281361230  0.1765845927  0.9057546092
0.2234919106  0.8275094790  0.7319931070
0.3026129344  0.7812303136  0.5795070485
0.7821930364  0.0377069854  0.8774706719
0.3267706411  0.1513325452  0.5816293071
0.3964279796  0.0554863390  0.6257068689
0.0295266772  0.3740645100  0.6554211206
0.6984971350  0.8769242616  0.1255312809
0.1557736415  0.3313594348  0.4705103934
0.0513386496  0.8124505994  0.4554135662
0.5621691499  0.7008552066  0.8041901276
0.3639581129  0.2703359046  0.9495282395
0.0502129684  0.7983389479  0.7602781553
0.4841994759  0.9331282136  0.1585982522
0.4328424080  0.3552948937  0.3419730667
0.2859373354  0.6930741374  0.8804852544
0.9141162356  0.8400179178  0.2963570194
0.9648052154  0.5842775112  0.3687117944
0.2495177615  0.0733487213  0.9477293833
0.7474212886  0.3350436842  0.1338713901
0.9269410603  0.4334878679  0.5453162672
0.0938513556  0.7055058625  0.6123767390
0.7114403047  0.5049825365  0.3024579866
0.2416423788  0.4749566351  0.7571783222
0.7671714028  0.9350890342  0.6146336560
0.5065744643  0.5339128693  0.4907664560
0.0503171051  0.5791146505  0.3227200133
0.5135490448  0.4119129949  0.9215651903
0.5832413489  0.3626570191  0.4444320356
0.1865532909  0.7590621366  0.3182755842
0.7393486252  0.3946358475  0.6051033724
0.8625858601  0.6646536706  0.8792913378
0.0620612127  0.5105735209  0.8542263971
0.1933305322  0.2620909860  0.6821631227
0.1187509991  0.8881893174  0.1007143737
0.4745643540  0.3064829457  0.6272429571
0.6903953531  0.7012399449  0.2580769025
0.6207452650  0.6834931596  0.4369205756
0.5013352992  0.4811362457  0.7432529589
0.8964471581  0.9699467342  0.1448422789
0.6100808804  0.9670538296  0.3108383237
0.9291178722  0.9255079978  0.9469241809
0.3570405415  0.1184998667  0.4431850274
0.3433170196  0.5981698969  0.1332224219
0.6397492910  0.7163334977  0.6480273625
0.4341874134  0.5698226941  0.9567899120
0.3688244093  0.3497908556  0.7790261373
0.3961945639  0.8887943740  0.3283954881
0.3574098435  0.9140796913  0.6276495635
0.8648092733  0.7264609443  0.5004916815
0.1996804684  0.1935934757  0.2503374061
0.7800385604  0.7337218567  0.0522665823
0.5605899687  0.9346738325  0.4769693778
0.6795685949  0.9091154562  0.8377570248
0.7306943521  0.2922017872  0.3212699943
0.4159993484  0.7393956942  0.4331935841
0.6084034097  0.0569481692  0.6508785774
0.6148974766  0.2897561847  0.7882509691
0.1615294552  0.5315919267  0.5554831231
0.8192498258  0.9614996819  0.4295288640
0.7128798575  0.5064142542  0.7921747152
0.8546434113  0.0519456941  0.4824697323
0.2836061604  0.4732738435  0.2449863862
0.1001686066  0.6259795186  0.0837020993
0.9285396538  0.2675009446  0.9411935682
0.3662302323  0.7030290950  0.6701537328
0.9493130667  0.3823246894  0.7657714933
0.0350195474  0.3735148253  0.2620187745
0.5309352988  0.4783217504  0.1035448314
0.3012364717  0.8621127138  0.9109178792
0.0001310332  0.3396404884  0.7332607554
0.1195690650  0.3745626818  0.6549238844
-0.0010050557  0.4582958876  0.6464201738
-0.0005883339  0.3237589237  0.5870796105
0.7474611657  0.8469527381  0.1949024045
0.6484117500  0.8096121896  0.0928408621
0.7533909887  0.9075442271  0.0610548121
0.6447246355  0.9435879502  0.1533269865
0.2046327170  0.3685629276  0.4046558832
0.0741711725  0.3100468036  0.4389679331
0.1473604438  0.3899204644  0.5383922640
0.1969304081  0.2569073682  0.5000255518
-0.0006283279  0.8788354989  0.4237812362
0.0000314573  0.7517187804  0.4976905177
0.1114918994  0.8463633518  0.5132031897
0.0944596865  0.7728847667  0.3869792628
0.5146671248  0.6475739209  0.7493012439
0.5359224545  0.7862879267  0.7932136840
0.6497686249  0.6936205477  0.7846420302
0.5483185123  0.6759383726  0.8896034354
0.3254538772  0.3479030651  0.9742038227
0.4317077224  0.2512572114  1.0056897416
0.3957605931  0.2779679315  0.8656326016
0.3029102003  0.2042154104  0.9525867921
0.0001928369  0.8261804947  0.8297832941
0.0551214224  0.8638416389  0.6986872822
0.0124894358  0.7253181312  0.7234947757
0.1330481202  0.7780155853  0.7891472106
0.4816827729  0.8676252303  0.0968637162
0.4009398256  0.9644674292  0.1725198149
0.5369247037  0.9999819325  0.1292937058
0.5172506600  0.9004383210  0.2357158302
0.5149543921  0.3269289218  0.3182849395
0.4397468820  0.4329841414  0.3869711939
0.3937576151  0.2935239889  0.3945550408
0.3829108014  0.3677424059  0.2680811510
0.2102037043  0.7374471526  0.9005747920
0.3260181211  0.7324342112  0.8101117063
0.2661257683  0.6076929887  0.8598530487
0.3414016309  0.6947221973  0.9514015876
0.9846654303  0.8910792401  0.3192409967
0.9415521700  0.7733713612  0.2423789364
0.8532837298  0.8904741251  0.2532095536
0.8769635541  0.8051468864  0.3705986493
0.8754924270  0.5795896094  0.3791702446
0.9837707675  0.6197896756  0.2881678820
1.0000382399  0.5015873086  0.3741053226
0.9999194271  0.6361434510  0.4334037284
0.2781712347  0.0043744980  0.9980250880
0.1822000178  0.0458448438  0.8946257905
0.3173816816  0.1036586157  0.8968970329
0.2203180535  0.1395169862  1.0013695047
0.6981936127  0.4104121647  0.1317850326
0.7109530085  0.2769798323  0.1922389980
0.8314131111  0.3547576634  0.1596562240
0.7491254805  0.2980251348  0.0518052471
0.9206165589  0.5131212720  0.5868691739
1.0006323040  0.4323966261  0.4935810682
0.8540703383  0.4205201405  0.4940344513
0.9324449231  0.3679134916  0.6067803169
0.1222213621  0.6280078145  0.6483951443
0.1293228243  0.7151623847  0.5301778672
0.1198524733  0.7741426504  0.6645404710
0.0040087627  0.7047105417  0.6063934152
0.7193148688  0.5535636415  0.3778635376
0.7808882005  0.5226993263  0.2479490466
0.6344617704  0.5263272682  0.2609028580
0.7110964375  0.4173399100  0.3231166212
0.1733555975  0.5320303997  0.7708761170
0.3004621420  0.5117531706  0.6997816230
0.2100222107  0.3980746947  0.7225740349
0.2827295066  0.4579683923  0.8354813971
0.7211112108  1.0001530183  0.5727616738
0.8553194515  0.9528192723  0.6097661902
0.7502218092  0.8560374737  0.5749891215
0.7420332566  0.9313463724  0.7010176387
0.5433930434  0.6097208753  0.5224787742
0.4848013750  0.4800551193  0.5595661438
0.5656399806  0.4919344116  0.4373136753
0.4324635753  0.5539411294  0.4437072892
0.0533087670  0.6578228700  0.3663571141
0.1337846193  0.5543334105  0.2997594976
0.0001069432  0.5878421291  0.2484845813
0.0140679738  0.5164602509  0.3762789187
0.5667080679  0.4443861360  0.9865862568
0.5579240480  0.4129123205  0.8432198995
0.4396885280  0.4629820938  0.9148792220
0.4898754185  0.3273714293  0.9415753829
0.6044912994  0.4069618572  0.3689757904
0.5096093947  0.3993377823  0.4810515214
0.6516560061  0.3681158009  0.5027223451
0.5672086370  0.2762125776  0.4249784856
0.1145740742  0.7852864961  0.2709533570
0.1662886915  0.6848622549  0.3650927985
0.2107128102  0.8246832312  0.3750057740
0.2546377046  0.7414165059  0.2620504073
0.6545053499  0.3716326481  0.6246123528
0.7451976415  0.4841753275  0.5975803936
0.7637096935  0.3563264368  0.5273405099
0.7939818158  0.3664089193  0.6708801164
0.7861174841  0.6664449841  0.9268045308
0.8569021994  0.6012031901  0.8156528150
0.9315602588  0.6460832061  0.9341164298
0.8757634395  0.7448833606  0.8405914586
0.1023026178  0.4469407867  0.8048337749
0.1239124565  0.5545313344  0.9027059382
0.0022273308  0.4722660396  0.9095488423
0.0198025041  0.5685558643  0.7998170914
0.1037274944  0.2542557144  0.6864094525
0.2152811390  0.3211386102  0.6178228326
0.2295937549  0.1819345601  0.6629785387
0.2247197404  0.2910351180  0.7614416086
0.0951209335  0.8739110239  0.0150062558
0.1948156922  0.8434906780  0.1187234009
0.0532149213  0.8590694221  0.1551678833
0.1318523325  0.9762860287  0.1139599547
0.5142410476  0.2793050433  0.7033695124
0.5370785405  0.3191778481  0.5636903280
0.4307861630  0.3837464670  0.6421408664
0.4161516650  0.2437024829  0.5997712386
0.7777285518  0.6914803385  0.2384355441
0.6757660005  0.7844219459  0.2892997026
0.6668261557  0.6410669320  0.3207812363
0.6412606459  0.6879905633  0.1837912440
0.5653801361  0.7094284976  0.3708132374
0.7034526580  0.7153575605  0.4210375492
0.6233716594  0.5935504645  0.4403181423
0.5907766066  0.7156360572  0.5155134321
0.5787233050  0.5081485001  0.7805297157
0.5045749361  0.3923957117  0.7283283284
0.4889589461  0.5242702046  0.6651862233
0.4330838927  0.4997306247  0.7989676267
0.8315080093  0.9999965502  0.0901792682
0.8964810127  0.8799016567  0.1447448665
0.8815320583  0.9998657509  0.2284516435
0.9762674350  1.0000230960  0.1159933961
0.6689411055  1.0002417770  0.2513222310
0.5281034962  1.0000729716  0.2935881314
0.6350337324  0.9906399251  0.3940799650
0.6082451875  0.8772605861  0.3043627921
0.9361278276  0.8534094421  0.8934378379
1.0012358987  0.9301562564  1.0006410746
0.8546965613  0.9185130695  0.9971303668
0.9244112598  0.9999532233  0.8964872691
0.3822880867  0.0663322172  0.3742704444
0.4265263264  0.1297583738  0.4993375251
0.2889625011  0.0792642774  0.4871631303
0.3303852517  0.1986446570  0.4119690684
0.2949510874  0.5251080337  0.1124659656
0.4292674992  0.5746088854  0.1460878253
0.3107809638  0.6353076100  0.2085239532
0.3382685279  0.6576549417  0.0658120019
0.5673294963  0.6709462469  0.6196813291
0.6982612050  0.6590888812  0.6855444930
0.6147200760  0.7778288293  0.7088548983
0.6786864449  0.7574700334  0.5780286711
0.4344257407  0.6488744300  0.9999047510
0.5185939698  0.5392901426  0.9496189863
0.3990737279  0.5805798720  0.8745741421
0.3846562153  0.5105462150  1.0030618270
0.3424650406  0.4049056122  0.7128772847
0.3005627704  0.3368551116  0.8363074150
0.4382686215  0.3866510074  0.8229231996
0.3940011463  0.2707516909  0.7439966499
0.4722516558  0.9240644690  0.3612506778
0.3425039237  0.8645179714  0.3964844040
0.4157792641  0.8165252003  0.2783781631
0.3542432952  0.9500697967  0.2774687073
0.3542739339  1.0001632507  0.6538776067
0.4205234148  0.8705849086  0.6749042569
0.3775159868  0.9101310367  0.5399667675
0.2773259799  0.8754395109  0.6418497399
0.7781013621  0.7506989315  0.5020368327
0.9160154864  0.7966235881  0.5242245389
0.8870498956  0.6998130803  0.4174051050
0.8780703491  0.6587081189  0.5583001911
0.2819026116  0.1973905153  0.2138238696
0.1801285120  0.2727444366  0.2885600461
0.1975371603  0.1287596914  0.3127883272
0.1391537652  0.1754792009  0.1861773232
0.7675260286  0.8082311077  0.0032774675
0.7012796466  0.7068235035  0.0866416637
0.8376341775  0.7511613191  0.1192496972
0.8137142718  0.6686714963  -0.0001024994
0.6082852401  0.8803541043  0.4232790884
0.6144799946  0.9690735887  0.5403779346
0.4944339827  0.8877196210  0.5160438798
0.5251605990  1.0015480162  0.4281767252
0.5965389690  0.9438789012  0.8401471969
0.7034605515  0.8827464398  0.9204732468
0.7373992649  0.9715207700  0.8082727390
0.6808756527  0.8383157724  0.7821348579
0.7523906691  0.3138072405  0.4059493757
0.7327273841  0.2026930044  0.3116697795
0.7897325624  0.3298124711  0.2646302589
0.6479267926  0.3224944912  0.3028305045
0.4008158674  0.6703594918  0.3774119087
0.4717590972  0.7132138430  0.4988707521
0.3380573312  0.7666810076  0.4690918901
0.4533650394  0.8073284930  0.3873998438
0.6759802963  -0.0002537051  0.6344638169
0.5313787419  0.0109641647  0.6586759015
0.6015780469  0.1156333909  0.5829257816
0.6246766122  0.1014487093  0.7274488681
0.5478472371  0.2987181315  0.8476822791
0.6156195918  0.3607624461  0.7328820396
0.6027026171  0.2144792111  0.7403679478
0.6934205189  0.2850649500  0.8320717269
0.2224130646  0.5633337142  0.6137391687
0.2031420022  0.4831831353  0.4919763352
0.1180167804  0.6004275156  0.5170586417
0.1025459151  0.4794234585  0.5991582300
0.7499920772  0.9919432407  0.3806956911
0.8182312633  1.0005459425  0.5106614026
0.8964818313  0.9812755233  0.3876688098
0.8122941899  0.8722341379  0.4390896694
0.6704246868  0.4364342734  0.8297044754
0.6856516701  0.5826751170  0.8315579434
0.6936885493  0.5095268339  0.7042535334
0.8017545821  0.4970209093  0.8031828500
0.9046158306  -0.0000287092  0.4285295384
0.9086066427  0.1016034232  0.5347211121
0.8023178904  -0.0000039760  0.5341552895
0.8030332815  0.1062120970  0.4324728721
0.2277077186  0.5339073146  0.2088328548
0.2371168506  0.3997948491  0.2683894094
0.3228979402  0.5084433687  0.3179753363
0.3467021320  0.4509499586  0.1847479444
0.0552640328  0.5480711806  0.0790125019
0.1853183277  0.6101105251  0.1083157619
0.0608873515  0.6796577630  0.1443960877
0.0992047143  0.6660786641  0.0030841628
0.9048108894  0.2032233937  0.9996184191
0.8567342126  0.2919548062  0.8926742669
0.9925605176  0.2359916957  0.8862697773
0.9600529957  0.3388339997  0.9862116924
0.4111483129  0.7522847199  0.6096196622
0.4140085908  0.6981995183  0.7463247844
0.3531543922  0.6200930809  0.6376149873
0.2866095749  0.7415389439  0.6870554972
1.0002246451  0.4378427197  0.7164370496
0.8975304478  0.4305857834  0.8214271055
1.0023653220  0.3277531856  0.8138915555
0.8971319689  0.3331169521  0.7113302041
0.0045077531  0.2904148590  0.2455401053
0.0106822767  0.4282982276  0.1948279711
0.1248273501  0.3718129723  0.2683262024
0.0000606928  0.4035333594  0.3393808777
0.4448795716  0.4618816136  0.1243358440
0.5393418309  0.4857238115  0.0141990655
0.5824067358  0.4105741874  0.1330250242
0.5571129986  0.5551073893  0.1426193335
0.3898040489  0.8640800246  0.8947921986
0.2705844643  0.9462437555  0.9204335451
0.2855067559  0.8157118121  0.9864669762
0.2590505594  0.8224152047  0.8419789138
